pure_adt/tip2015_mccarthy91_M2.smt2
(set-logic HORN)
(declare-datatypes ((Nat_157 0)) (((Z_441 ) (S_154 (unS_162 Nat_157)))))
(declare-fun diseqNat_157 (Nat_157 Nat_157) Bool)
(declare-fun unS_163 (Nat_157 Nat_157) Bool)
(declare-fun isZ_154 (Nat_157) Bool)
(declare-fun isS_154 (Nat_157) Bool)
(assert (forall ((x_4288 Nat_157))
	(unS_163 x_4288 (S_154 x_4288))))
(assert (isZ_154 Z_441))
(assert (forall ((x_4290 Nat_157))
	(isS_154 (S_154 x_4290))))
(assert (forall ((x_4291 Nat_157))
	(diseqNat_157 Z_441 (S_154 x_4291))))
(assert (forall ((x_4292 Nat_157))
	(diseqNat_157 (S_154 x_4292) Z_441)))
(assert (forall ((x_4293 Nat_157) (x_4294 Nat_157))
	(=> (diseqNat_157 x_4293 x_4294)
	    (diseqNat_157 (S_154 x_4293) (S_154 x_4294)))))
(declare-fun add_81 (Nat_157 Nat_157 Nat_157) Bool)
(declare-fun minus_81 (Nat_157 Nat_157 Nat_157) Bool)
(declare-fun le_81 (Nat_157 Nat_157) Bool)
(declare-fun ge_81 (Nat_157 Nat_157) Bool)
(declare-fun lt_81 (Nat_157 Nat_157) Bool)
(declare-fun gt_81 (Nat_157 Nat_157) Bool)
(declare-fun mult_81 (Nat_157 Nat_157 Nat_157) Bool)
(declare-fun div_81 (Nat_157 Nat_157 Nat_157) Bool)
(declare-fun mod_81 (Nat_157 Nat_157 Nat_157) Bool)
(assert (forall ((y_354 Nat_157))
	(add_81 y_354 Z_441 y_354)))
(assert (forall ((x_4283 Nat_157) (y_354 Nat_157) (r_84 Nat_157))
	(=> (add_81 r_84 x_4283 y_354)
	    (add_81 (S_154 r_84) (S_154 x_4283) y_354))))
(assert (forall ((y_354 Nat_157))
	(minus_81 Z_441 Z_441 y_354)))
(assert (forall ((x_4283 Nat_157) (y_354 Nat_157) (r_84 Nat_157))
	(=> (minus_81 r_84 x_4283 y_354)
	    (minus_81 (S_154 r_84) (S_154 x_4283) y_354))))
(assert (forall ((y_354 Nat_157))
	(le_81 Z_441 y_354)))
(assert (forall ((x_4283 Nat_157) (y_354 Nat_157))
	(=> (le_81 x_4283 y_354)
	    (le_81 (S_154 x_4283) (S_154 y_354)))))
(assert (forall ((y_354 Nat_157))
	(ge_81 y_354 Z_441)))
(assert (forall ((x_4283 Nat_157) (y_354 Nat_157))
	(=> (ge_81 x_4283 y_354)
	    (ge_81 (S_154 x_4283) (S_154 y_354)))))
(assert (forall ((y_354 Nat_157))
	(lt_81 Z_441 (S_154 y_354))))
(assert (forall ((x_4283 Nat_157) (y_354 Nat_157))
	(=> (lt_81 x_4283 y_354)
	    (lt_81 (S_154 x_4283) (S_154 y_354)))))
(assert (forall ((y_354 Nat_157))
	(gt_81 (S_154 y_354) Z_441)))
(assert (forall ((x_4283 Nat_157) (y_354 Nat_157))
	(=> (gt_81 x_4283 y_354)
	    (gt_81 (S_154 x_4283) (S_154 y_354)))))
(assert (forall ((y_354 Nat_157))
	(mult_81 Z_441 Z_441 y_354)))
(assert (forall ((x_4283 Nat_157) (y_354 Nat_157) (r_84 Nat_157) (z_442 Nat_157))
	(=>	(and (mult_81 r_84 x_4283 y_354)
			(add_81 z_442 r_84 y_354))
		(mult_81 z_442 (S_154 x_4283) y_354))))
(assert (forall ((x_4283 Nat_157) (y_354 Nat_157))
	(=> (lt_81 x_4283 y_354)
	    (div_81 Z_441 x_4283 y_354))))
(assert (forall ((x_4283 Nat_157) (y_354 Nat_157) (r_84 Nat_157) (z_442 Nat_157))
	(=>	(and (ge_81 x_4283 y_354)
			(minus_81 z_442 x_4283 y_354)
			(div_81 r_84 z_442 y_354))
		(div_81 (S_154 r_84) x_4283 y_354))))
(assert (forall ((x_4283 Nat_157) (y_354 Nat_157))
	(=> (lt_81 x_4283 y_354)
	    (mod_81 x_4283 x_4283 y_354))))
(assert (forall ((x_4283 Nat_157) (y_354 Nat_157) (r_84 Nat_157) (z_442 Nat_157))
	(=>	(and (ge_81 x_4283 y_354)
			(minus_81 z_442 x_4283 y_354)
			(mod_81 r_84 z_442 y_354))
		(mod_81 r_84 x_4283 y_354))))
(declare-fun m_16 (Nat_157 Nat_157) Bool)
(assert (forall ((x_4278 Nat_157) (x_4277 Nat_157))
	(=>	(and (gt_81 x_4277 (S_154 (S_154 (S_154 (S_154 (S_154 (S_154 (S_154 (S_154 (S_154 (S_154 (S_154 (S_154 (S_154 (S_154 (S_154 (S_154 (S_154 (S_154 (S_154 (S_154 (S_154 (S_154 (S_154 (S_154 (S_154 (S_154 (S_154 (S_154 (S_154 (S_154 (S_154 (S_154 (S_154 (S_154 (S_154 (S_154 (S_154 (S_154 (S_154 (S_154 (S_154 (S_154 (S_154 (S_154 (S_154 (S_154 (S_154 (S_154 (S_154 (S_154 (S_154 (S_154 (S_154 (S_154 (S_154 (S_154 (S_154 (S_154 (S_154 (S_154 (S_154 (S_154 (S_154 (S_154 (S_154 (S_154 (S_154 (S_154 (S_154 (S_154 (S_154 (S_154 (S_154 (S_154 (S_154 (S_154 (S_154 (S_154 (S_154 (S_154 (S_154 (S_154 (S_154 (S_154 (S_154 (S_154 (S_154 (S_154 (S_154 (S_154 (S_154 (S_154 (S_154 (S_154 (S_154 (S_154 (S_154 (S_154 (S_154 (S_154 Z_441)))))))))))))))))))))))))))))))))))))))))))))))))))))))))))))))))))))))))))))))))))))))))))))))))))))
			(minus_81 x_4278 x_4277 (S_154 (S_154 (S_154 (S_154 (S_154 (S_154 (S_154 (S_154 (S_154 (S_154 Z_441))))))))))))
		(m_16 x_4278 x_4277))))
(assert (forall ((x_4285 Nat_157) (x_4279 Nat_157) (x_4280 Nat_157) (x_4277 Nat_157))
	(=>	(and (le_81 x_4277 (S_154 (S_154 (S_154 (S_154 (S_154 (S_154 (S_154 (S_154 (S_154 (S_154 (S_154 (S_154 (S_154 (S_154 (S_154 (S_154 (S_154 (S_154 (S_154 (S_154 (S_154 (S_154 (S_154 (S_154 (S_154 (S_154 (S_154 (S_154 (S_154 (S_154 (S_154 (S_154 (S_154 (S_154 (S_154 (S_154 (S_154 (S_154 (S_154 (S_154 (S_154 (S_154 (S_154 (S_154 (S_154 (S_154 (S_154 (S_154 (S_154 (S_154 (S_154 (S_154 (S_154 (S_154 (S_154 (S_154 (S_154 (S_154 (S_154 (S_154 (S_154 (S_154 (S_154 (S_154 (S_154 (S_154 (S_154 (S_154 (S_154 (S_154 (S_154 (S_154 (S_154 (S_154 (S_154 (S_154 (S_154 (S_154 (S_154 (S_154 (S_154 (S_154 (S_154 (S_154 (S_154 (S_154 (S_154 (S_154 (S_154 (S_154 (S_154 (S_154 (S_154 (S_154 (S_154 (S_154 (S_154 (S_154 (S_154 (S_154 Z_441)))))))))))))))))))))))))))))))))))))))))))))))))))))))))))))))))))))))))))))))))))))))))))))))))))))
			(m_16 x_4280 x_4285)
			(m_16 x_4279 x_4280)
			(add_81 x_4285 x_4277 (S_154 (S_154 (S_154 (S_154 (S_154 (S_154 (S_154 (S_154 (S_154 (S_154 (S_154 Z_441)))))))))))))
		(m_16 x_4279 x_4277))))
(assert (forall ((x_4286 Nat_157) (x_4282 Nat_157) (n_32 Nat_157))
	(=>	(and true
			(diseqNat_157 x_4282 x_4286)
			(ge_81 n_32 (S_154 (S_154 (S_154 (S_154 (S_154 (S_154 (S_154 (S_154 (S_154 (S_154 (S_154 (S_154 (S_154 (S_154 (S_154 (S_154 (S_154 (S_154 (S_154 (S_154 (S_154 (S_154 (S_154 (S_154 (S_154 (S_154 (S_154 (S_154 (S_154 (S_154 (S_154 (S_154 (S_154 (S_154 (S_154 (S_154 (S_154 (S_154 (S_154 (S_154 (S_154 (S_154 (S_154 (S_154 (S_154 (S_154 (S_154 (S_154 (S_154 (S_154 (S_154 (S_154 (S_154 (S_154 (S_154 (S_154 (S_154 (S_154 (S_154 (S_154 (S_154 (S_154 (S_154 (S_154 (S_154 (S_154 (S_154 (S_154 (S_154 (S_154 (S_154 (S_154 (S_154 (S_154 (S_154 (S_154 (S_154 (S_154 (S_154 (S_154 (S_154 (S_154 (S_154 (S_154 (S_154 (S_154 (S_154 (S_154 (S_154 (S_154 (S_154 (S_154 (S_154 (S_154 (S_154 (S_154 (S_154 (S_154 (S_154 (S_154 (S_154 Z_441))))))))))))))))))))))))))))))))))))))))))))))))))))))))))))))))))))))))))))))))))))))))))))))))))))))
			(m_16 x_4282 n_32)
			(minus_81 x_4286 n_32 (S_154 (S_154 (S_154 (S_154 (S_154 (S_154 (S_154 (S_154 (S_154 (S_154 Z_441))))))))))))
		false)))
(check-sat)
